0 0 0 0
0 1 2 0
0 2 1 0
0 3 1 0
0 4 0 7
0 5 1 4
0 6 2 4
0 7 1 4
0 8 0 7
0 9 1 6
0 10 1 6
0 11 2 9
0 12 2 8
0 13 1 4
0 14 1 12
0 15 1 13
0 16 2 11
0 17 1 12
0 18 0 21
0 19 2 16
0 20 2 9
0 21 2 17
0 22 0 17
0 23 0 17
0 24 1 16
0 25 0 21
0 26 0 21
0 27 0 24
0 28 0 24
0 29 1 21
0 30 0 25
0 31 0 26
